CMD:
./solvers/bin/cadical --plain --no-reduce -t 1600 ./data/cnfs//qspiflash_qflexpress_divfive-p063/qspiflash_qflexpress_divfive-p063.40.cnf

c --- [ banner ] -------------------------------------------------------------
c 
c CaDiCaL SAT Solver
c Copyright (c) 2016-2024
c A. Biere, M. Fleury, N. Froleyks, K. Fazekas, F. Pollitt, T. Faller
c JKU Linz, University of Freiburg, TU Wien
c 
c Version 2.1.3 5296d3d2a9bf48c154ab2acb5e44625776d821bf
c g++ (Gentoo 12.3.1_p20230526 p2) 12.3.1 20230526 -Wall -Wextra -O3 -DNDEBUG
c Sat Aug 9 07:26:21 PDT 2025 Linux cedar2.int.cedar.computecanada.ca 5.14.0-362.24.2.el9_3.x86_64 x86_64
c 
c --- [ limit ] --------------------------------------------------------------
c 
c setting time limit to 1600 seconds real time (due to '-t 1600')
c 
c --- [ parsing input ] ------------------------------------------------------
c 
c reading DIMACS file from './data/cnfs//qspiflash_qflexpress_divfive-p063/qspiflash_qflexpress_divfive-p063.40.cnf'
c opening file to read './data/cnfs//qspiflash_qflexpress_divfive-p063/qspiflash_qflexpress_divfive-p063.40.cnf'
c found 'p cnf 108908 317050' header
c parsed 317050 clauses in 0.07 seconds process time
c 
c --- [ options ] ------------------------------------------------------------
c 
c   --compact=false                (different from default 'true')
c   --decompose=false              (different from default 'true')
c   --deduplicate=false            (different from default 'true')
c   --elim=false                   (different from default 'true')
c   --probe=false                  (different from default 'true')
c   --reduce=false                 (different from default 'true')
c   --subsume=false                (different from default 'true')
c   --ternary=false                (different from default 'true')
c   --transred=false               (different from default 'true')
c   --vivify=false                 (different from default 'true')
c 
c --- [ solving ] ------------------------------------------------------------
c 
c time measured in process time since initialization
c 
c  seconds  reductions  redundant  irredundant
c         MB    restarts       trail       variables
c          level   conflicts       glue          remaining
c 
c *  0.07 52  0 0   0    0    0  0% 0 302936 100699 92%
c {  0.08 53  0 0   0    0    0  0% 0 302936 100699 92%
c i  0.08 53 28 0   0    6    5 14% 1 302936 100680 92%
c i  0.10 53 62 0   4  105   93 16% 4 302936 100665 92%
c i  0.10 53 59 0   4  117  101 17% 3 302936 100659 92%
c i  0.10 53 49 0   4  165  142 17% 3 302936 100616 92%
c i  0.11 53 41 0   4  207  179 16% 3 302936 100592 92%
c i  0.11 53 35 0   4  243  205 15% 3 302936 100586 92%
c i  0.11 53 35 0   4  244  205 15% 3 302936 100585 92%
c i  0.11 53 35 0   4  245  205 15% 3 302936 100543 92%
c i  0.11 53 31 0   4  274  224 14% 3 302936 100519 92%
c }  0.11 53 31 0   4  278  226 14% 3 302936 98896 91%
c 0  0.11 53 31 0   4  278  226 14% 3 302936 98896 91%
c 
c --- [ result ] -------------------------------------------------------------
c 
s UNSATISFIABLE
c 
c --- [ run-time profiling ] -------------------------------------------------
c 
c process time taken by individual solving procedures
c (percentage relative to process time for solving)
c 
c         0.07  149.63% parse
c         0.04   99.71% search
c         0.03   72.49% unstable
c         0.01   27.15% lucky
c         0.00    0.00% simplify
c   =================================
c         0.04   39.83% solve
c 
c last line shows process time for solving
c (percentage relative to total process time)
c 
c --- [ statistics ] ---------------------------------------------------------
c 
c chronological:               138        49.64 %  of conflicts
c conflicts:                   278      6212.15    per second
c decisions:                  1171     26167.01    per second
c fixed:                     10011         9.19 %  of all variables
c learned:                     260        93.53 %  per conflict
c learned_lits:               1840       100.00 %  learned literals
c minimized:                     0         0.00 %  learned literals
c shrunken:                    317        17.23 %  learned literals
c minishrunken:                156         8.48 %  learned literals
c otfs:                          7         2.52 %  of conflict
c propagations:             372556         8.33 M  per second
c restarts:                      4        69.50    interval
c subsumed:                     24         0.01 %  of all clauses
c strengthened:                  7         0.00 %  of all clauses
c 
c seconds are measured in process time for solving
c 
c --- [ resources ] ----------------------------------------------------------
c 
c total process time since initialization:         0.11    seconds
c total real time since initialization:            0.12    seconds
c maximum resident set size of process:           51.54    MB
c 
c --- [ shutting down ] ------------------------------------------------------
c 
c exit 20
